100
128
6
16
43
29
3
5
25
10
28
4
19
3
11
16
17
30
22
13
17
47
16
3
1
3
4
4
10
10
12
10
9
13
5
10
28
28
20
31
8
25
5
12
9
7
26
2
7
8
11
1
40
12
2
8
3
3
7
6
62
43
2
43
44
13
42
8
45
29
12
22
49
40
23
22
3
46
20
42
51
43
43
51
45
53
3
11
3
56
47
19
28
55
1
26
35
64
37
42
4
64